c instance by G2
c solution = 00000110011010010111010
c Known solution cost is 1107 
p cnf 23 30
w 11 63 41 51 46 28 86 74 38 62 37 46 89 9 60 37 26 80 82 1 58 20 62
8 12 20 0
5 23 -8 0
-9 -6 15 0
-7 -14 19 0
-17 3 8 0
18 -11 -21 0
-19 -4 9 0
-7 -5 -10 0
14 -21 -16 0
21 17 -3 0
8 18 5 0
19 -16 9 0
4 3 13 0
21 7 5 0
7 13 8 0
23 9 -2 0
-19 22 21 0
8 7 -12 0
5 -14 -10 0
-20 -1 21 0
17 12 11 0
15 10 4 0
-18 16 23 0
8 -23 4 0
-10 -17 14 0
-10 -15 4 0
17 6 -22 0
-13 21 -12 0
5 10 -23 0
17 -1 2 0
